NAME : LPS-n21-m157
COMMENT : (Lartu-Peter-Santi Plot, instance 7357 out of 39200. 21 customers.)
TYPE : CVRP
DIMENSION : 21
EDGE_WEIGHT_TYPE : EUC_2D
CAPACITY : 81
NODE_COORD_SECTION
 1 41 46
 2 85 78
 3 83 100
 4 50 76
 5 60 31
 6 13 58
 7 99 67
 8 85 87
 9 35 85
 10 81 74
 11 46 100
 12 52 53
 13 34 74
 14 29 55
 15 100 6
 16 2 41
 17 73 91
 18 39 59
 19 60 26
 20 53 62
 21 90 47
DEMAND_SECTION
1 0
2 17
3 49
4 80
5 73
6 64
7 28
8 37
9 1
10 52
11 36
12 66
13 34
14 45
15 74
16 77
17 52
18 66
19 8
20 44
21 12
DEPOT_SECTION
 1
 -1
EOF
